dimension           3
units               real
boundary            p p p

atom_style          full
pair_style          lj/cut/coul/long 12.0
bond_style          harmonic
angle_style         harmonic
dihedral_style      opls
improper_style      cvff
kspace_style        pppm 1.0e-4
box                 tilt large

read_data           data.tam

special_bonds       lj/coul 0.0 0.0 0.5 angle yes dihedral yes

velocity            all create 298 4928549

neighbor            3.0 bin
neigh_modify        delay 1 every 1 check yes one 5000
timestep            1.0
thermo_style        custom step press etotal ebond eangle edihed eimp
thermo              1

#fix                 1 all shake 0.0001 100 10 m 1.007947

#fix                 NVT all nvt temp 298 298 500.0
fix                 NVE all nve
run                 50
